500
125 125
1 87 793
2 87 835
3 87 907
4 87 697
5 87 119
6 87 256
7 86 989
8 86 381
9 86 178
10 85 950
11 85 804
12 85 938
13 84 246
14 84 633
15 84 503
16 84 848
17 84 971
18 84 297
19 84 955
20 84 21
21 84 183
22 83 895
23 83 748
24 83 766
25 83 493
26 83 79
27 83 942
28 83 148
29 83 430
30 82 550
31 82 284
32 82 985
33 82 662
34 81 853
35 81 934
36 81 252
37 81 122
38 81 862
39 80 819
40 80 416
41 80 821
42 80 126
43 80 171
44 80 458
45 80 511
46 79 60
47 79 125
48 79 53
49 79 400
50 79 298
51 78 498
52 78 659
53 78 246
54 78 125
55 78 235
56 78 44
57 77 497
58 77 515
59 77 652
60 77 470
61 77 292
62 77 847
63 77 165
64 77 395
65 77 231
66 77 553
67 77 716
68 77 889
69 76 135
70 76 790
71 76 681
72 76 924
73 76 794
74 76 224
75 76 602
76 76 369
77 75 512
78 75 441
79 75 435
80 75 743
81 75 301
82 75 967
83 75 136
84 74 967
85 73 249
86 73 143
87 73 176
88 73 574
89 73 429
90 73 221
91 73 688
92 73 284
93 73 154
94 73 812
95 72 61
96 72 864
97 72 160
98 72 477
99 72 658
100 71 888
101 71 881
102 71 980
103 71 223
104 71 934
105 71 175
106 71 789
107 71 336
108 70 585
109 70 204
110 70 749
111 70 191
112 70 514
113 70 770
114 70 147
115 69 762
116 69 9
117 69 757
118 69 672
119 69 472
120 68 315
121 68 604
122 68 89
123 68 751
124 68 974
125 67 685
126 67 595
127 67 196
128 67 193
129 67 660
130 66 209
131 66 978
132 66 878
133 66 499
134 66 30
135 66 44
136 65 96
137 65 912
138 65 933
139 65 839
140 65 387
141 65 726
142 65 268
143 64 69
144 64 649
145 64 461
146 64 433
147 64 189
148 64 383
149 63 488
150 63 391
151 63 28
152 63 710
153 63 427
154 63 545
155 63 67
156 63 585
157 62 897
158 62 537
159 62 508
160 62 629
161 62 930
162 62 769
163 62 761
164 61 865
165 61 455
166 61 863
167 61 63
168 61 983
169 61 531
170 61 1
171 60 921
172 60 359
173 60 101
174 60 78
175 60 398
176 60 52
177 60 192
178 60 733
179 60 127
180 59 987
181 59 531
182 59 885
183 59 473
184 58 171
185 58 597
186 58 682
187 58 502
188 58 917
189 57 543
190 57 666
191 57 891
192 57 971
193 57 695
194 56 104
195 56 721
196 56 650
197 56 856
198 56 11
199 56 720
200 55 358
201 55 283
202 55 441
203 54 588
204 54 782
205 54 471
206 54 729
207 54 123
208 53 808
209 53 216
210 53 953
211 53 270
212 53 344
213 53 285
214 53 906
215 53 41
216 53 442
217 53 753
218 53 76
219 52 849
220 52 778
221 52 668
222 52 810
223 52 273
224 52 69
225 52 134
226 52 579
227 52 2
228 52 662
229 51 895
230 51 654
231 51 320
232 51 58
233 51 78
234 51 753
235 51 124
236 51 468
237 50 928
238 50 971
239 50 357
240 50 218
241 50 870
242 50 551
243 49 149
244 49 437
245 49 285
246 49 137
247 49 455
248 49 840
249 49 1000
250 48 971
251 48 28
252 48 911
253 48 640
254 47 262
255 47 618
256 47 18
257 47 733
258 46 676
259 46 8
260 46 408
261 46 349
262 46 386
263 46 324
264 46 622
265 46 110
266 46 176
267 45 555
268 45 707
269 45 414
270 44 413
271 44 325
272 44 271
273 44 148
274 44 331
275 44 496
276 44 334
277 43 273
278 43 983
279 43 15
280 43 400
281 43 799
282 43 539
283 43 74
284 43 422
285 43 818
286 43 768
287 42 94
288 42 32
289 42 323
290 42 400
291 42 365
292 41 995
293 41 340
294 41 24
295 41 408
296 41 318
297 41 282
298 41 276
299 41 325
300 40 604
301 40 744
302 40 258
303 40 304
304 40 528
305 39 445
306 39 485
307 39 611
308 39 971
309 38 474
310 38 163
311 38 177
312 38 813
313 38 41
314 38 697
315 37 411
316 37 284
317 37 936
318 37 218
319 37 737
320 37 358
321 37 488
322 37 689
323 37 443
324 37 936
325 37 179
326 37 858
327 36 287
328 36 854
329 36 853
330 36 245
331 36 983
332 35 6
333 35 505
334 35 991
335 35 790
336 35 613
337 35 202
338 35 310
339 35 145
340 35 155
341 34 109
342 34 771
343 34 268
344 34 356
345 34 758
346 33 238
347 33 623
348 33 118
349 33 946
350 32 354
351 32 217
352 32 930
353 32 847
354 32 0
355 32 433
356 32 605
357 31 762
358 31 277
359 31 179
360 31 40
361 31 524
362 31 841
363 31 714
364 30 547
365 30 250
366 30 267
367 30 570
368 30 104
369 30 680
370 30 441
371 30 909
372 30 395
373 29 975
374 29 543
375 29 232
376 29 989
377 29 569
378 29 293
379 29 789
380 29 695
381 29 802
382 29 395
383 28 121
384 28 443
385 28 76
386 28 855
387 28 284
388 27 963
389 27 851
390 27 11
391 27 391
392 27 777
393 27 407
394 27 235
395 27 995
396 27 334
397 27 448
398 27 228
399 27 599
400 27 684
401 27 681
402 26 556
403 26 858
404 26 140
405 25 524
406 25 970
407 25 874
408 25 659
409 25 57
410 25 102
411 25 581
412 25 231
413 25 515
414 24 783
415 24 890
416 24 767
417 24 373
418 24 107
419 24 666
420 24 563
421 23 350
422 23 213
423 23 774
424 23 500
425 23 516
426 23 635
427 23 172
428 23 396
429 22 282
430 22 647
431 22 937
432 22 527
433 22 804
434 21 87
435 21 218
436 21 360
437 21 476
438 21 245
439 20 794
440 20 694
441 20 77
442 20 476
443 20 673
444 20 818
445 20 686
446 20 49
447 19 948
448 19 661
449 19 836
450 19 304
451 18 941
452 18 827
453 18 712
454 18 364
455 18 332
456 18 558
457 18 998
458 17 517
459 17 73
460 17 572
461 17 869
462 17 283
463 16 350
464 16 425
465 16 408
466 16 730
467 16 896
468 16 614
469 16 498
470 15 696
471 15 374
472 15 936
473 15 129
474 15 925
475 15 282
476 14 47
477 14 13
478 14 524
479 14 749
480 14 888
481 14 652
482 14 483
483 14 354
484 14 276
485 13 950
486 13 695
487 13 895
488 13 578
489 13 712
490 13 374
491 13 145
492 12 36
493 12 65
494 12 710
495 12 65
496 12 828
497 12 983
498 12 413
499 12 218
500 12 924
